p cnf 196 1
196 0
w 1 0.103041
w 2 1 1
w 2 -1 0
w 3 2 1
w 3 -2 0
w 4 3 1
w 4 -3 0
w 5 4 1
w 5 -4 0
w 6 5 0.300577
w 6 -5 0.111903
w 7 6 1
w 7 -6 0
w 8 7 0.571639
w 8 -7 0.69701
w 9 8 1
w 9 -8 0
w 10 9 0
w 10 -9 1
w 11 10 1
w 11 -10 0
w 12 11 1
w 12 -11 0
w 13 12 0.534565
w 13 -12 0.623814
w 14 13 0
w 14 -13 1
w 15 1 0
w 15 -1 1
w 16 15 2 0.708973
w 16 15 -2 0.57049
w 16 -15 2 0.236053
w 16 -15 -2 0.176521
w 17 16 3 0.275061
w 17 16 -3 0.850329
w 17 -16 3 0.549992
w 17 -16 -3 0.575638
w 18 17 4 0.911227
w 18 17 -4 0.25975
w 18 -17 4 0.578013
w 18 -17 -4 0.482866
w 19 18 5 0.68376
w 19 18 -5 0.41084
w 19 -18 5 0.336595
w 19 -18 -5 0.113678
w 20 19 6 0.091112
w 20 19 -6 0.480139
w 20 -19 6 0.301307
w 20 -19 -6 0.978506
w 21 20 7 1
w 21 20 -7 1
w 21 -20 7 1
w 21 -20 -7 0
w 22 21 8 0.820607
w 22 21 -8 0.0252636
w 22 -21 8 0.242
w 22 -21 -8 0.0566602
w 23 22 9 0
w 23 22 -9 1
w 23 -22 9 0
w 23 -22 -9 1
w 24 23 10 0.0143458
w 24 23 -10 0.560516
w 24 -23 10 0.167109
w 24 -23 -10 0.592359
w 25 24 11 1
w 25 24 -11 1
w 25 -24 11 0
w 25 -24 -11 1
w 26 25 12 1
w 26 25 -12 0
w 26 -25 12 1
w 26 -25 -12 1
w 27 26 13 0.88464
w 27 26 -13 0.504762
w 27 -26 13 0.803569
w 27 -26 -13 0.160097
w 28 27 14 0.475078
w 28 27 -14 0.980704
w 28 -27 14 0.846316
w 28 -27 -14 0.717078
w 29 15 0
w 29 -15 1
w 30 29 16 0.369085
w 30 29 -16 0.100215
w 30 -29 16 0.465664
w 30 -29 -16 0.276444
w 31 30 17 0
w 31 30 -17 0
w 31 -30 17 0
w 31 -30 -17 1
w 32 31 18 0.983038
w 32 31 -18 0.523786
w 32 -31 18 0.0278839
w 32 -31 -18 0.372835
w 33 32 19 0.579459
w 33 32 -19 0.242771
w 33 -32 19 0.381759
w 33 -32 -19 0.10954
w 34 33 20 0
w 34 33 -20 1
w 34 -33 20 0
w 34 -33 -20 1
w 35 34 21 1
w 35 34 -21 1
w 35 -34 21 1
w 35 -34 -21 0
w 36 35 22 0.921639
w 36 35 -22 0.674661
w 36 -35 22 0.702204
w 36 -35 -22 0.387303
w 37 36 23 0.816764
w 37 36 -23 0.413483
w 37 -36 23 0.394658
w 37 -36 -23 0.523684
w 38 37 24 1
w 38 37 -24 0
w 38 -37 24 1
w 38 -37 -24 1
w 39 38 25 0.80895
w 39 38 -25 0.569422
w 39 -38 25 0.122329
w 39 -38 -25 0.190709
w 40 39 26 0.249741
w 40 39 -26 0.0772292
w 40 -39 26 0.592071
w 40 -39 -26 0.53725
w 41 40 27 0.980258
w 41 40 -27 0.805462
w 41 -40 27 0.33869
w 41 -40 -27 0.0855222
w 42 41 28 0
w 42 41 -28 0
w 42 -41 28 1
w 42 -41 -28 0
w 43 29 1
w 43 -29 0
w 44 43 30 0
w 44 43 -30 0
w 44 -43 30 0
w 44 -43 -30 1
w 45 44 31 1
w 45 44 -31 1
w 45 -44 31 1
w 45 -44 -31 0
w 46 45 32 0.491941
w 46 45 -32 0.297485
w 46 -45 32 0.331891
w 46 -45 -32 0.741683
w 47 46 33 0
w 47 46 -33 1
w 47 -46 33 0
w 47 -46 -33 0
w 48 47 34 1
w 48 47 -34 0
w 48 -47 34 0
w 48 -47 -34 0
w 49 48 35 0.981134
w 49 48 -35 0.0817678
w 49 -48 35 0.391368
w 49 -48 -35 0.717939
w 50 49 36 0.199316
w 50 49 -36 0.849402
w 50 -49 36 0.524747
w 50 -49 -36 0.49031
w 51 50 37 0.0148006
w 51 50 -37 0.788136
w 51 -50 37 0.026451
w 51 -50 -37 0.384413
w 52 51 38 0.679379
w 52 51 -38 0.876354
w 52 -51 38 0.192397
w 52 -51 -38 0.0112701
w 53 52 39 0.567111
w 53 52 -39 0.935232
w 53 -52 39 0.89697
w 53 -52 -39 0.726627
w 54 53 40 0.981365
w 54 53 -40 0.224833
w 54 -53 40 0.829194
w 54 -53 -40 0.176799
w 55 54 41 0.826098
w 55 54 -41 0.157932
w 55 -54 41 0.745486
w 55 -54 -41 0.217466
w 56 55 42 0.286901
w 56 55 -42 0.416782
w 56 -55 42 0.725273
w 56 -55 -42 0.811647
w 57 43 0.668218
w 57 -43 0.826448
w 58 57 44 0.694669
w 58 57 -44 0.210861
w 58 -57 44 0.590141
w 58 -57 -44 0.374048
w 59 58 45 1
w 59 58 -45 1
w 59 -58 45 0
w 59 -58 -45 0
w 60 59 46 1
w 60 59 -46 0
w 60 -59 46 0
w 60 -59 -46 1
w 61 60 47 1
w 61 60 -47 0
w 61 -60 47 1
w 61 -60 -47 1
w 62 61 48 0.710313
w 62 61 -48 0.0327613
w 62 -61 48 0.794187
w 62 -61 -48 0.997214
w 63 62 49 1
w 63 62 -49 0
w 63 -62 49 1
w 63 -62 -49 1
w 64 63 50 0.0518649
w 64 63 -50 0.882347
w 64 -63 50 0.84617
w 64 -63 -50 0.642006
w 65 64 51 1
w 65 64 -51 1
w 65 -64 51 1
w 65 -64 -51 0
w 66 65 52 0.962264
w 66 65 -52 0.240857
w 66 -65 52 0.85047
w 66 -65 -52 0.122267
w 67 66 53 0.15158
w 67 66 -53 0.111464
w 67 -66 53 0.584827
w 67 -66 -53 0.116407
w 68 67 54 0.503144
w 68 67 -54 0.82672
w 68 -67 54 0.95952
w 68 -67 -54 0.297331
w 69 68 55 0.409064
w 69 68 -55 0.816791
w 69 -68 55 0.632795
w 69 -68 -55 0.7657
w 70 69 56 0
w 70 69 -56 0
w 70 -69 56 0
w 70 -69 -56 1
w 71 57 0
w 71 -57 1
w 72 71 58 0
w 72 71 -58 1
w 72 -71 58 1
w 72 -71 -58 0
w 73 72 59 0.92715
w 73 72 -59 0.508779
w 73 -72 59 0.869455
w 73 -72 -59 0.751592
w 74 73 60 0.980919
w 74 73 -60 0.336419
w 74 -73 60 0.776765
w 74 -73 -60 0.907678
w 75 74 61 0.603485
w 75 74 -61 0.867199
w 75 -74 61 0.136893
w 75 -74 -61 0.427419
w 76 75 62 1
w 76 75 -62 1
w 76 -75 62 1
w 76 -75 -62 0
w 77 76 63 1
w 77 76 -63 0
w 77 -76 63 1
w 77 -76 -63 0
w 78 77 64 0.490247
w 78 77 -64 0.203212
w 78 -77 64 0.773106
w 78 -77 -64 0.17654
w 79 78 65 0.520295
w 79 78 -65 0.10369
w 79 -78 65 0.3703
w 79 -78 -65 0.38975
w 80 79 66 0.0306578
w 80 79 -66 0.370669
w 80 -79 66 0.191701
w 80 -79 -66 0.807423
w 81 80 67 1
w 81 80 -67 0
w 81 -80 67 0
w 81 -80 -67 0
w 82 81 68 0
w 82 81 -68 1
w 82 -81 68 0
w 82 -81 -68 0
w 83 82 69 1
w 83 82 -69 0
w 83 -82 69 0
w 83 -82 -69 0
w 84 83 70 0.159693
w 84 83 -70 0.845608
w 84 -83 70 0.686253
w 84 -83 -70 0.336233
w 85 71 0.206547
w 85 -71 0.439923
w 86 85 72 1
w 86 85 -72 1
w 86 -85 72 1
w 86 -85 -72 0
w 87 86 73 0
w 87 86 -73 1
w 87 -86 73 0
w 87 -86 -73 1
w 88 87 74 0
w 88 87 -74 1
w 88 -87 74 1
w 88 -87 -74 0
w 89 88 75 1
w 89 88 -75 0
w 89 -88 75 0
w 89 -88 -75 0
w 90 89 76 0.959585
w 90 89 -76 0.242133
w 90 -89 76 0.726275
w 90 -89 -76 0.119278
w 91 90 77 0
w 91 90 -77 1
w 91 -90 77 0
w 91 -90 -77 0
w 92 91 78 0.872298
w 92 91 -78 0.215373
w 92 -91 78 0.190638
w 92 -91 -78 0.980384
w 93 92 79 0
w 93 92 -79 0
w 93 -92 79 1
w 93 -92 -79 0
w 94 93 80 1
w 94 93 -80 0
w 94 -93 80 1
w 94 -93 -80 0
w 95 94 81 0.450336
w 95 94 -81 0.907623
w 95 -94 81 0.57837
w 95 -94 -81 0.740474
w 96 95 82 0.391499
w 96 95 -82 0.700059
w 96 -95 82 0.749493
w 96 -95 -82 0.117774
w 97 96 83 0.837234
w 97 96 -83 0.530302
w 97 -96 83 0.274847
w 97 -96 -83 0.632103
w 98 97 84 0
w 98 97 -84 1
w 98 -97 84 0
w 98 -97 -84 1
w 99 85 0
w 99 -85 1
w 100 99 86 1
w 100 99 -86 0
w 100 -99 86 1
w 100 -99 -86 1
w 101 100 87 0.116214
w 101 100 -87 0.990039
w 101 -100 87 0.42444
w 101 -100 -87 0.806421
w 102 101 88 1
w 102 101 -88 0
w 102 -101 88 0
w 102 -101 -88 1
w 103 102 89 0.880908
w 103 102 -89 0.588916
w 103 -102 89 0.894063
w 103 -102 -89 0.700245
w 104 103 90 1
w 104 103 -90 1
w 104 -103 90 0
w 104 -103 -90 0
w 105 104 91 1
w 105 104 -91 0
w 105 -104 91 0
w 105 -104 -91 0
w 106 105 92 1
w 106 105 -92 1
w 106 -105 92 1
w 106 -105 -92 0
w 107 106 93 0
w 107 106 -93 0
w 107 -106 93 1
w 107 -106 -93 0
w 108 107 94 0
w 108 107 -94 0
w 108 -107 94 0
w 108 -107 -94 1
w 109 108 95 0.523272
w 109 108 -95 0.438421
w 109 -108 95 0.756708
w 109 -108 -95 0.223517
w 110 109 96 0.181073
w 110 109 -96 0.198609
w 110 -109 96 0.922823
w 110 -109 -96 0.754815
w 111 110 97 0
w 111 110 -97 0
w 111 -110 97 1
w 111 -110 -97 0
w 112 111 98 1
w 112 111 -98 0
w 112 -111 98 0
w 112 -111 -98 1
w 113 99 0.892788
w 113 -99 0.0691007
w 114 113 100 1
w 114 113 -100 0
w 114 -113 100 1
w 114 -113 -100 1
w 115 114 101 0.117148
w 115 114 -101 0.430393
w 115 -114 101 0.719664
w 115 -114 -101 0.64042
w 116 115 102 0.476371
w 116 115 -102 0.863937
w 116 -115 102 0.733384
w 116 -115 -102 0.657444
w 117 116 103 1
w 117 116 -103 0
w 117 -116 103 1
w 117 -116 -103 0
w 118 117 104 1
w 118 117 -104 0
w 118 -117 104 0
w 118 -117 -104 0
w 119 118 105 0.923661
w 119 118 -105 0.825789
w 119 -118 105 0.627754
w 119 -118 -105 0.816449
w 120 119 106 0.641022
w 120 119 -106 0.387256
w 120 -119 106 0.665554
w 120 -119 -106 0.115806
w 121 120 107 0.522574
w 121 120 -107 0.232954
w 121 -120 107 0.398538
w 121 -120 -107 0.242238
w 122 121 108 0.267352
w 122 121 -108 0.71861
w 122 -121 108 0.737311
w 122 -121 -108 0.000736248
w 123 122 109 1
w 123 122 -109 1
w 123 -122 109 0
w 123 -122 -109 1
w 124 123 110 0.893877
w 124 123 -110 0.463191
w 124 -123 110 0.473223
w 124 -123 -110 0.178329
w 125 124 111 0
w 125 124 -111 1
w 125 -124 111 1
w 125 -124 -111 1
w 126 125 112 0.8357
w 126 125 -112 0.377624
w 126 -125 112 0.305695
w 126 -125 -112 0.501255
w 127 113 0
w 127 -113 1
w 128 127 114 0
w 128 127 -114 0
w 128 -127 114 1
w 128 -127 -114 0
w 129 128 115 0.984676
w 129 128 -115 0.337069
w 129 -128 115 0.940467
w 129 -128 -115 0.36073
w 130 129 116 1
w 130 129 -116 1
w 130 -129 116 0
w 130 -129 -116 1
w 131 130 117 0
w 131 130 -117 1
w 131 -130 117 1
w 131 -130 -117 0
w 132 131 118 0.323239
w 132 131 -118 0.862337
w 132 -131 118 0.71471
w 132 -131 -118 0.241678
w 133 132 119 0.0923342
w 133 132 -119 0.547373
w 133 -132 119 0.199293
w 133 -132 -119 0.585764
w 134 133 120 0.223121
w 134 133 -120 0.312148
w 134 -133 120 0.493591
w 134 -133 -120 0.489188
w 135 134 121 0.433322
w 135 134 -121 0.473865
w 135 -134 121 0.248974
w 135 -134 -121 0.373789
w 136 135 122 0.385901
w 136 135 -122 0.971199
w 136 -135 122 0.983637
w 136 -135 -122 0.729215
w 137 136 123 1
w 137 136 -123 1
w 137 -136 123 1
w 137 -136 -123 0
w 138 137 124 1
w 138 137 -124 1
w 138 -137 124 0
w 138 -137 -124 0
w 139 138 125 0.0176208
w 139 138 -125 0.0216493
w 139 -138 125 0.360096
w 139 -138 -125 0.216913
w 140 139 126 0.181309
w 140 139 -126 0.440035
w 140 -139 126 0.919561
w 140 -139 -126 0.6749
w 141 127 0.831467
w 141 -127 0.108222
w 142 141 128 0
w 142 141 -128 0
w 142 -141 128 1
w 142 -141 -128 1
w 143 142 129 0
w 143 142 -129 1
w 143 -142 129 0
w 143 -142 -129 0
w 144 143 130 0
w 144 143 -130 0
w 144 -143 130 0
w 144 -143 -130 1
w 145 144 131 0.200863
w 145 144 -131 0.879453
w 145 -144 131 0.525725
w 145 -144 -131 0.222512
w 146 145 132 1
w 146 145 -132 1
w 146 -145 132 0
w 146 -145 -132 0
w 147 146 133 0.0957573
w 147 146 -133 0.111897
w 147 -146 133 0.580954
w 147 -146 -133 0.20398
w 148 147 134 0.661395
w 148 147 -134 0.685991
w 148 -147 134 0.752667
w 148 -147 -134 0.127736
w 149 148 135 0
w 149 148 -135 0
w 149 -148 135 1
w 149 -148 -135 0
w 150 149 136 1
w 150 149 -136 1
w 150 -149 136 0
w 150 -149 -136 1
w 151 150 137 0.751194
w 151 150 -137 0.489003
w 151 -150 137 0.663733
w 151 -150 -137 0.276919
w 152 151 138 0.903282
w 152 151 -138 0.0195579
w 152 -151 138 0.541441
w 152 -151 -138 0.324139
w 153 152 139 1
w 153 152 -139 0
w 153 -152 139 0
w 153 -152 -139 0
w 154 153 140 0.829112
w 154 153 -140 0.533277
w 154 -153 140 0.309867
w 154 -153 -140 0.58178
w 155 141 0.449068
w 155 -141 0.555768
w 156 155 142 0.408717
w 156 155 -142 0.777633
w 156 -155 142 0.0388738
w 156 -155 -142 0.425308
w 157 156 143 1
w 157 156 -143 0
w 157 -156 143 0
w 157 -156 -143 0
w 158 157 144 0
w 158 157 -144 1
w 158 -157 144 1
w 158 -157 -144 1
w 159 158 145 1
w 159 158 -145 1
w 159 -158 145 1
w 159 -158 -145 0
w 160 159 146 0.845994
w 160 159 -146 0.618219
w 160 -159 146 0.214389
w 160 -159 -146 0.675106
w 161 160 147 1
w 161 160 -147 0
w 161 -160 147 1
w 161 -160 -147 1
w 162 161 148 0.796815
w 162 161 -148 0.382041
w 162 -161 148 0.590286
w 162 -161 -148 0.835689
w 163 162 149 0.0854699
w 163 162 -149 0.117652
w 163 -162 149 0.520797
w 163 -162 -149 0.364934
w 164 163 150 1
w 164 163 -150 1
w 164 -163 150 1
w 164 -163 -150 0
w 165 164 151 0
w 165 164 -151 1
w 165 -164 151 1
w 165 -164 -151 1
w 166 165 152 0.91574
w 166 165 -152 0.168381
w 166 -165 152 0.457178
w 166 -165 -152 0.130129
w 167 166 153 0.608674
w 167 166 -153 0.654385
w 167 -166 153 0.100372
w 167 -166 -153 0.421184
w 168 167 154 0.913025
w 168 167 -154 0.217999
w 168 -167 154 0.00975057
w 168 -167 -154 0.503311
w 169 155 1
w 169 -155 0
w 170 169 156 0.17134
w 170 169 -156 0.337897
w 170 -169 156 0.953715
w 170 -169 -156 0.322149
w 171 170 157 0
w 171 170 -157 1
w 171 -170 157 1
w 171 -170 -157 0
w 172 171 158 0.790983
w 172 171 -158 0.741681
w 172 -171 158 0.895944
w 172 -171 -158 0.629942
w 173 172 159 0.0643243
w 173 172 -159 0.0871202
w 173 -172 159 0.78755
w 173 -172 -159 0.907811
w 174 173 160 0.441935
w 174 173 -160 0.00818281
w 174 -173 160 0.116978
w 174 -173 -160 0.0696451
w 175 174 161 0.334977
w 175 174 -161 0.0793957
w 175 -174 161 0.424519
w 175 -174 -161 0.388664
w 176 175 162 0.0133007
w 176 175 -162 0.560004
w 176 -175 162 0.234392
w 176 -175 -162 0.967016
w 177 176 163 0.295538
w 177 176 -163 0.228861
w 177 -176 163 0.665189
w 177 -176 -163 0.993898
w 178 177 164 0.238746
w 178 177 -164 0.784881
w 178 -177 164 0.386997
w 178 -177 -164 0.134689
w 179 178 165 1
w 179 178 -165 0
w 179 -178 165 0
w 179 -178 -165 0
w 180 179 166 0
w 180 179 -166 0
w 180 -179 166 1
w 180 -179 -166 1
w 181 180 167 0
w 181 180 -167 0
w 181 -180 167 1
w 181 -180 -167 0
w 182 181 168 1
w 182 181 -168 0
w 182 -181 168 0
w 182 -181 -168 1
w 183 169 1
w 183 -169 0
w 184 183 170 0.669912
w 184 183 -170 0.145702
w 184 -183 170 0.843267
w 184 -183 -170 0.315228
w 185 184 171 1
w 185 184 -171 1
w 185 -184 171 1
w 185 -184 -171 0
w 186 185 172 0.718151
w 186 185 -172 0.544913
w 186 -185 172 0.578609
w 186 -185 -172 0.824975
w 187 186 173 0.852512
w 187 186 -173 0.939983
w 187 -186 173 0.0573655
w 187 -186 -173 0.19606
w 188 187 174 0.707058
w 188 187 -174 0.619004
w 188 -187 174 0.436932
w 188 -187 -174 0.745415
w 189 188 175 0.910968
w 189 188 -175 0.343775
w 189 -188 175 0.492274
w 189 -188 -175 0.352019
w 190 189 176 0.341643
w 190 189 -176 0.0219311
w 190 -189 176 0.969991
w 190 -189 -176 0.18491
w 191 190 177 0
w 191 190 -177 1
w 191 -190 177 1
w 191 -190 -177 1
w 192 191 178 0.786026
w 192 191 -178 0.591728
w 192 -191 178 0.40094
w 192 -191 -178 0.364635
w 193 192 179 0
w 193 192 -179 0
w 193 -192 179 1
w 193 -192 -179 0
w 194 193 180 1
w 194 193 -180 0
w 194 -193 180 0
w 194 -193 -180 1
w 195 194 181 0.970653
w 195 194 -181 0.680784
w 195 -194 181 0.997203
w 195 -194 -181 0.462927
w 196 195 182 1
w 196 195 -182 0
w 196 -195 182 1
w 196 -195 -182 0